data;
set WEIGHTS := x0 x1 x2 x3 x4 x5 x6 x7 x8 x9 x10 x11 x12 x13 x14 x15 x16 x17 x18 x19 x20 x21 x22 x23;
param:  cost :=
  x0  939
  x1  839
  x2  635
  x3  163
  x4  693
  x5  921
  x6  89
  x7  654
  x8  365
  x9  212
  x10  782
  x11  714
  x12  492
  x13  558
  x14  918
  x15  383
  x16  63
  x17  56
  x18  136
  x19  775
  x20  405
  x21  819
  x22  955
  x23  879;
param cap := 6000;